J=10;
K=10;
E=[50, 48, 25, 41, 53, 45, 60, 38, 55, 63];
A=[1, 0.8, 1.5, 0.9, 1.1, 1.4, 0.7, 1.6, 1.3, 0.9];
G=[0, 0, 0, 0, 0, 0, 0, 0, 0, 0];
F=[35, 31, 26, 29, 38, 32, 40, 27, 34, 42];
V=[0.1, 0.125, 0.15, 0.115, 0.165, 0.12, 0.135, 0.11, 0.155, 0.14];
P_inf=[60, 90, 55, 30, 75, 50, 70, 45, 85, 40];
P_sup=[380, 270, 180, 300, 450, 400, 320, 500, 350, 420];
Sup=[280, 200, 150, 190, 330, 290, 210, 180, 250, 300];
Inf=[300, 150, 100, 250, 300, 320, 230, 160, 290, 320];
P0=[0, 0, 0, 0, 0, 0, 0, 0, 0, 0];
D=[350, 500, 400, 350, 600, 480, 550, 410, 520, 470];
R=[25, 60, 55, 65, 80, 70, 75, 85, 50, 45];
